language Essence 1.3

letting blksize_delta be function(1 --> 5, 2 --> 6, 3 --> 6, 4 --> 4, 5 --> 2, 6 --> 4, 7 --> 3, 8 --> 2)
letting maxcars be function(1 --> 9, 2 --> 10, 3 --> 9, 4 --> 9, 5 --> 9, 6 --> 9, 7 --> 9, 8 --> 9)
letting n_cars be 300
letting n_classes be 122
letting n_options be 8
letting quantity be
        function(1 --> 25, 2 --> 22, 3 --> 10, 4 --> 7, 5 --> 2, 6 --> 2, 7 --> 2, 8 --> 2, 9 --> 2, 10 --> 2, 11 --> 2,
                 12 --> 2, 13 --> 2, 14 --> 2, 15 --> 2, 16 --> 2, 17 --> 2, 18 --> 2, 19 --> 2, 20 --> 2, 21 --> 2,
                 22 --> 2, 23 --> 2, 24 --> 2, 25 --> 2, 26 --> 2, 27 --> 2, 28 --> 2, 29 --> 2, 30 --> 2, 31 --> 2,
                 32 --> 2, 33 --> 2, 34 --> 2, 35 --> 2, 36 --> 2, 37 --> 2, 38 --> 2, 39 --> 2, 40 --> 2, 41 --> 2,
                 42 --> 2, 43 --> 2, 44 --> 2, 45 --> 2, 46 --> 2, 47 --> 2, 48 --> 2, 49 --> 2, 50 --> 2, 51 --> 2,
                 52 --> 2, 53 --> 2, 54 --> 2, 55 --> 2, 56 --> 2, 57 --> 2, 58 --> 2, 59 --> 2, 60 --> 2, 61 --> 2,
                 62 --> 2, 63 --> 2, 64 --> 2, 65 --> 2, 66 --> 2, 67 --> 2, 68 --> 2, 69 --> 2, 70 --> 2, 71 --> 2,
                 72 --> 2, 73 --> 2, 74 --> 2, 75 --> 2, 76 --> 2, 77 --> 2, 78 --> 2, 79 --> 2, 80 --> 2, 81 --> 2,
                 82 --> 2, 83 --> 2, 84 --> 2, 85 --> 2, 86 --> 2, 87 --> 2, 88 --> 2, 89 --> 2, 90 --> 2, 91 --> 2,
                 92 --> 2, 93 --> 2, 94 --> 2, 95 --> 2, 96 --> 2, 97 --> 2, 98 --> 2, 99 --> 2, 100 --> 2, 101 --> 2,
                 102 --> 2, 103 --> 2, 104 --> 2, 105 --> 2, 106 --> 2, 107 --> 2, 108 --> 2, 109 --> 2, 110 --> 2,
                 111 --> 2, 112 --> 2, 113 --> 2, 114 --> 2, 115 --> 2, 116 --> 2, 117 --> 2, 118 --> 2, 119 --> 2,
                 120 --> 2, 121 --> 2, 122 --> 2)
letting usage be
        relation((1, 4), (1, 6), (1, 7), (2, 1), (2, 4), (2, 5), (3, 8), (4, 1), (4, 4), (4, 5), (5, 1), (5, 5), (6, 1),
                 (6, 2), (6, 3), (6, 5), (6, 6), (6, 7), (7, 3), (7, 5), (7, 7), (8, 3), (8, 6), (8, 7), (9, 1), (9, 3),
                 (10, 2), (10, 4), (10, 5), (10, 6), (10, 7), (11, 2), (11, 3), (11, 4), (11, 5), (12, 1), (12, 2),
                 (12, 5), (13, 2), (13, 5), (14, 1), (14, 4), (14, 5), (14, 6), (14, 7), (15, 1), (15, 5), (16, 1),
                 (16, 6), (17, 7), (18, 2), (18, 4), (18, 5), (18, 6), (19, 1), (19, 2), (19, 3), (19, 4), (19, 5),
                 (20, 4), (20, 5), (20, 6), (20, 7), (21, 5), (22, 4), (22, 5), (22, 6), (23, 2), (24, 2), (24, 3),
                 (24, 5), (24, 6), (24, 7), (25, 1), (25, 6), (25, 7), (26, 1), (26, 2), (26, 3), (26, 6), (27, 3),
                 (27, 4), (28, 3), (28, 4), (28, 7), (29, 2), (29, 3), (29, 5), (30, 1), (30, 4), (30, 6), (31, 1),
                 (31, 3), (31, 4), (32, 1), (32, 4), (32, 6), (33, 2), (33, 6), (34, 1), (34, 3), (34, 4), (34, 7),
                 (35, 1), (35, 6), (35, 7), (36, 1), (36, 2), (36, 5), (36, 7), (37, 1), (37, 2), (37, 3), (37, 4),
                 (37, 5), (37, 7), (38, 1), (38, 2), (38, 4), (38, 5), (39, 2), (39, 4), (39, 5), (40, 1), (40, 2),
                 (40, 5), (40, 6), (41, 1), (41, 5), (41, 6), (41, 7), (42, 2), (42, 3), (42, 4), (42, 6), (42, 7),
                 (43, 5), (44, 1), (44, 5), (45, 1), (45, 3), (45, 6), (46, 1), (46, 2), (46, 5), (47, 1), (47, 2),
                 (47, 4), (47, 5), (47, 6), (48, 1), (48, 2), (48, 4), (48, 5), (48, 6), (49, 2), (49, 4), (50, 3),
                 (50, 5), (51, 1), (51, 2), (51, 3), (51, 4), (51, 5), (52, 2), (52, 3), (52, 4), (53, 1), (53, 2),
                 (53, 4), (53, 6), (53, 7), (54, 4), (54, 6), (55, 4), (55, 6), (55, 7), (56, 2), (56, 3), (56, 4),
                 (56, 5), (56, 6), (57, 3), (57, 6), (58, 3), (58, 5), (58, 7), (59, 3), (59, 6), (59, 7), (60, 1),
                 (60, 7), (61, 2), (61, 3), (61, 4), (61, 6), (62, 1), (62, 2), (62, 6), (63, 2), (63, 3), (63, 5),
                 (63, 6), (64, 1), (64, 3), (64, 4), (64, 7), (65, 2), (65, 4), (65, 5), (66, 1), (66, 2), (66, 4),
                 (66, 6), (67, 3), (67, 4), (67, 7), (68, 1), (68, 6), (69, 1), (69, 3), (69, 4), (69, 7), (70, 6),
                 (71, 3), (71, 4), (71, 5), (71, 7), (72, 2), (72, 5), (72, 7), (73, 3), (73, 6), (73, 7), (74, 1),
                 (74, 2), (74, 3), (74, 7), (75, 4), (75, 5), (75, 7), (76, 1), (76, 5), (76, 6), (77, 6), (78, 4),
                 (78, 5), (78, 7), (79, 1), (79, 2), (79, 3), (79, 6), (80, 1), (80, 4), (80, 5), (80, 6), (81, 1),
                 (81, 3), (82, 1), (82, 3), (82, 5), (83, 4), (83, 5), (83, 6), (84, 2), (84, 4), (84, 5), (84, 6),
                 (84, 7), (85, 2), (85, 4), (85, 5), (85, 7), (86, 3), (86, 5), (86, 6), (87, 3), (87, 5), (87, 7),
                 (88, 1), (88, 2), (89, 3), (89, 4), (89, 5), (90, 2), (90, 5), (90, 6), (91, 1), (91, 4), (91, 5),
                 (91, 6), (91, 7), (92, 2), (92, 3), (92, 5), (92, 6), (92, 7), (93, 1), (93, 7), (94, 4), (94, 6),
                 (94, 7), (95, 1), (95, 2), (95, 4), (95, 7), (96, 1), (96, 6), (96, 7), (97, 2), (97, 4), (97, 5),
                 (97, 6), (97, 7), (98, 1), (98, 4), (98, 7), (99, 1), (99, 5), (99, 6), (99, 7), (100, 3), (100, 5),
                 (100, 7), (101, 3), (101, 6), (101, 7), (102, 1), (102, 3), (102, 5), (102, 6), (103, 1), (104, 1),
                 (104, 2), (104, 5), (105, 2), (105, 4), (105, 5), (105, 6), (106, 2), (106, 3), (106, 7), (107, 1),
                 (107, 5), (107, 7), (108, 3), (108, 4), (108, 5), (108, 7), (109, 2), (109, 3), (109, 6), (110, 1),
                 (110, 2), (110, 4), (110, 7), (111, 1), (111, 2), (111, 3), (111, 4), (111, 5), (111, 6), (111, 7),
                 (112, 1), (112, 2), (112, 7), (113, 1), (113, 2), (113, 4), (113, 6), (113, 7), (114, 3), (114, 5),
                 (114, 6), (115, 3), (115, 4), (115, 6), (116, 2), (116, 7), (117, 1), (117, 3), (117, 6), (117, 7),
                 (118, 4), (118, 6), (119, 1), (119, 3), (119, 4), (119, 5), (119, 6), (119, 7), (120, 2), (120, 3),
                 (121, 1), (122, 3))
$ Visualisation for usage
$   1   4
$   1   6
$   1   7
$   2   1
$   2   4
$   2   5
$   3   8
$   4   1
$   4   4
$   4   5
$   5   1
$   5   5
$   6   1
$   6   2
$   6   3
$   6   5
$   6   6
$   6   7
$   7   3
$   7   5
$   7   7
$   8   3
$   8   6
$   8   7
$   9   1
$   9   3
$  10   2
$  10   4
$  10   5
$  10   6
$  10   7
$  11   2
$  11   3
$  11   4
$  11   5
$  12   1
$  12   2
$  12   5
$  13   2
$  13   5
$  14   1
$  14   4
$  14   5
$  14   6
$  14   7
$  15   1
$  15   5
$  16   1
$  16   6
$  17   7
$  18   2
$  18   4
$  18   5
$  18   6
$  19   1
$  19   2
$  19   3
$  19   4
$  19   5
$  20   4
$  20   5
$  20   6
$  20   7
$  21   5
$  22   4
$  22   5
$  22   6
$  23   2
$  24   2
$  24   3
$  24   5
$  24   6
$  24   7
$  25   1
$  25   6
$  25   7
$  26   1
$  26   2
$  26   3
$  26   6
$  27   3
$  27   4
$  28   3
$  28   4
$  28   7
$  29   2
$  29   3
$  29   5
$  30   1
$  30   4
$  30   6
$  31   1
$  31   3
$  31   4
$  32   1
$  32   4
$  32   6
$  33   2
$  33   6
$  34   1
$  34   3
$  34   4
$  34   7
$  35   1
$  35   6
$  35   7
$  36   1
$  36   2
$  36   5
$  36   7
$  37   1
$  37   2
$  37   3
$  37   4
$  37   5
$  37   7
$  38   1
$  38   2
$  38   4
$  38   5
$  39   2
$  39   4
$  39   5
$  40   1
$  40   2
$  40   5
$  40   6
$  41   1
$  41   5
$  41   6
$  41   7
$  42   2
$  42   3
$  42   4
$  42   6
$  42   7
$  43   5
$  44   1
$  44   5
$  45   1
$  45   3
$  45   6
$  46   1
$  46   2
$  46   5
$  47   1
$  47   2
$  47   4
$  47   5
$  47   6
$  48   1
$  48   2
$  48   4
$  48   5
$  48   6
$  49   2
$  49   4
$  50   3
$  50   5
$  51   1
$  51   2
$  51   3
$  51   4
$  51   5
$  52   2
$  52   3
$  52   4
$  53   1
$  53   2
$  53   4
$  53   6
$  53   7
$  54   4
$  54   6
$  55   4
$  55   6
$  55   7
$  56   2
$  56   3
$  56   4
$  56   5
$  56   6
$  57   3
$  57   6
$  58   3
$  58   5
$  58   7
$  59   3
$  59   6
$  59   7
$  60   1
$  60   7
$  61   2
$  61   3
$  61   4
$  61   6
$  62   1
$  62   2
$  62   6
$  63   2
$  63   3
$  63   5
$  63   6
$  64   1
$  64   3
$  64   4
$  64   7
$  65   2
$  65   4
$  65   5
$  66   1
$  66   2
$  66   4
$  66   6
$  67   3
$  67   4
$  67   7
$  68   1
$  68   6
$  69   1
$  69   3
$  69   4
$  69   7
$  70   6
$  71   3
$  71   4
$  71   5
$  71   7
$  72   2
$  72   5
$  72   7
$  73   3
$  73   6
$  73   7
$  74   1
$  74   2
$  74   3
$  74   7
$  75   4
$  75   5
$  75   7
$  76   1
$  76   5
$  76   6
$  77   6
$  78   4
$  78   5
$  78   7
$  79   1
$  79   2
$  79   3
$  79   6
$  80   1
$  80   4
$  80   5
$  80   6
$  81   1
$  81   3
$  82   1
$  82   3
$  82   5
$  83   4
$  83   5
$  83   6
$  84   2
$  84   4
$  84   5
$  84   6
$  84   7
$  85   2
$  85   4
$  85   5
$  85   7
$  86   3
$  86   5
$  86   6
$  87   3
$  87   5
$  87   7
$  88   1
$  88   2
$  89   3
$  89   4
$  89   5
$  90   2
$  90   5
$  90   6
$  91   1
$  91   4
$  91   5
$  91   6
$  91   7
$  92   2
$  92   3
$  92   5
$  92   6
$  92   7
$  93   1
$  93   7
$  94   4
$  94   6
$  94   7
$  95   1
$  95   2
$  95   4
$  95   7
$  96   1
$  96   6
$  96   7
$  97   2
$  97   4
$  97   5
$  97   6
$  97   7
$  98   1
$  98   4
$  98   7
$  99   1
$  99   5
$  99   6
$  99   7
$ 100   3
$ 100   5
$ 100   7
$ 101   3
$ 101   6
$ 101   7
$ 102   1
$ 102   3
$ 102   5
$ 102   6
$ 103   1
$ 104   1
$ 104   2
$ 104   5
$ 105   2
$ 105   4
$ 105   5
$ 105   6
$ 106   2
$ 106   3
$ 106   7
$ 107   1
$ 107   5
$ 107   7
$ 108   3
$ 108   4
$ 108   5
$ 108   7
$ 109   2
$ 109   3
$ 109   6
$ 110   1
$ 110   2
$ 110   4
$ 110   7
$ 111   1
$ 111   2
$ 111   3
$ 111   4
$ 111   5
$ 111   6
$ 111   7
$ 112   1
$ 112   2
$ 112   7
$ 113   1
$ 113   2
$ 113   4
$ 113   6
$ 113   7
$ 114   3
$ 114   5
$ 114   6
$ 115   3
$ 115   4
$ 115   6
$ 116   2
$ 116   7
$ 117   1
$ 117   3
$ 117   6
$ 117   7
$ 118   4
$ 118   6
$ 119   1
$ 119   3
$ 119   4
$ 119   5
$ 119   6
$ 119   7
$ 120   2
$ 120   3
$ 121   1
$ 122   3

